projected/problems_b25_r0_d7_m100_s666/_DIMACS/b25_d7_r0_s666_082.cnf
p cnf 174 237 25
c p show 1 2 3 4 5 6 7 8 9 10 11 12 13 14 15 16 17 18 19 20 21 22 23 24 25
-26 2 -6 0
-27 22 -19 0
-28 27 26 0
-29 -20 0
-29 3 0
-30 2 -10 0
-31 30 0
-31 29 0
-32 31 28 0
-33 8 21 0
-34 19 0
-34 -1 0
-35 34 0
-35 33 0
-36 -17 23 0
-37 -16 0
-37 5 0
-38 -5 0
-38 16 0
-39 38 37 0
-40 39 36 0
-41 40 0
-41 35 0
-42 41 32 0
-43 -8 0
-43 15 0
-44 9 13 0
-45 44 0
-45 43 0
-46 5 0
-46 12 0
-47 -9 4 0
-48 47 0
-48 46 0
-49 48 45 0
-50 -6 4 0
-51 -15 5 0
-52 51 0
-52 50 0
-53 15 0
-53 -5 0
-54 6 0
-54 -4 0
-55 54 0
-55 53 0
-56 55 52 0
-57 19 0
-57 -5 0
-58 -10 0
-58 -8 0
-59 58 57 0
-60 59 0
-60 56 0
-61 60 49 0
-62 61 42 0
-63 25 -10 0
-64 -14 4 0
-65 64 63 0
-66 2 -20 0
-67 10 7 0
-68 67 66 0
-69 -10 0
-69 -7 0
-70 -2 0
-70 20 0
-71 70 69 0
-72 71 0
-72 68 0
-73 72 65 0
-74 6 -25 0
-75 17 0
-75 -21 0
-76 21 0
-76 -17 0
-77 76 75 0
-78 77 74 0
-79 -6 -4 0
-80 -23 0
-80 21 0
-81 80 0
-81 79 0
-82 81 0
-82 78 0
-83 82 0
-83 73 0
-84 2 0
-84 13 0
-85 -24 0
-85 -10 0
-86 85 84 0
-87 -14 -21 0
-88 12 0
-88 11 0
-89 88 0
-89 87 0
-90 89 86 0
-91 -17 1 0
-92 5 14 0
-93 92 91 0
-94 21 0
-94 -2 0
-95 -17 -3 0
-96 95 94 0
-97 96 93 0
-98 97 0
-98 90 0
-99 98 0
-99 83 0
-100 99 0
-100 62 0
-101 -22 0
-101 -4 0
-102 7 0
-102 -24 0
-103 102 0
-103 101 0
-104 -8 0
-104 1 0
-105 -10 17 0
-106 105 104 0
-107 106 0
-107 103 0
-108 6 20 0
-109 -22 0
-109 18 0
-110 109 0
-110 108 0
-111 17 -2 0
-112 20 -1 0
-113 112 0
-113 111 0
-114 113 0
-114 110 0
-115 114 0
-115 107 0
-116 -19 0
-116 -18 0
-117 -19 -12 0
-118 12 19 0
-119 118 0
-119 117 0
-120 119 0
-120 116 0
-121 14 25 0
-122 24 10 0
-123 122 121 0
-124 -14 0
-124 -25 0
-125 124 85 0
-126 125 0
-126 123 0
-127 126 0
-127 120 0
-128 -5 -24 0
-129 25 0
-129 4 0
-130 129 128 0
-131 -25 -4 0
-132 5 0
-132 24 0
-133 132 131 0
-134 133 0
-134 130 0
-135 -21 0
-135 -2 0
-136 24 13 0
-137 136 0
-137 135 0
-138 137 0
-138 134 0
-139 138 127 0
-140 139 0
-140 115 0
-141 -19 0
-141 -22 0
-142 -11 6 0
-143 142 0
-143 141 0
-144 -24 22 0
-145 20 14 0
-146 145 144 0
-147 146 143 0
-148 -7 -14 0
-149 -8 0
-149 20 0
-150 149 0
-150 148 0
-151 -16 -6 0
-152 -16 0
-152 17 0
-153 152 151 0
-154 153 0
-154 150 0
-155 154 0
-155 147 0
-156 13 0
-156 -5 0
-157 13 -12 0
-158 157 0
-158 156 0
-159 -2 0
-159 25 0
-160 -14 16 0
-161 160 0
-161 159 0
-162 161 0
-162 158 0
-163 7 5 0
-164 6 0
-164 -11 0
-165 11 0
-165 -6 0
-166 165 164 0
-167 166 163 0
-168 -2 20 0
-169 21 22 0
-170 169 168 0
-171 170 167 0
-172 171 162 0
-173 172 0
-173 155 0
-174 173 0
-174 140 0
174 0
100 0
-51 -53 0
-50 -54 0
-54 -50 0
-67 -69 0
-69 -67 0
-70 -66 0
-66 -70 0
-85 -122 0
-121 -124 0
-129 -131 0
-131 -129 0
-128 -132 0
