projected/problems_b25_r0_d7_m100_s666/b25_d7_r0_s666_082.smt2
(set-logic QF_UF)
(declare-fun A0 () Bool)
(declare-fun A1 () Bool)
(declare-fun A2 () Bool)
(declare-fun A3 () Bool)
(declare-fun A4 () Bool)
(declare-fun A5 () Bool)
(declare-fun A6 () Bool)
(declare-fun A7 () Bool)
(declare-fun A8 () Bool)
(declare-fun A9 () Bool)
(declare-fun A10 () Bool)
(declare-fun A11 () Bool)
(declare-fun A12 () Bool)
(declare-fun A13 () Bool)
(declare-fun A14 () Bool)
(declare-fun A15 () Bool)
(declare-fun A16 () Bool)
(declare-fun A17 () Bool)
(declare-fun A18 () Bool)
(declare-fun A19 () Bool)
(declare-fun A20 () Bool)
(declare-fun A21 () Bool)
(declare-fun A22 () Bool)
(declare-fun A23 () Bool)
(declare-fun A24 () Bool)
(assert (let ((.def_0 (not A5))) (let ((.def_1 (or A1 .def_0))) (let ((.def_2 (not .def_1))) (let ((.def_3 (not A18))) (let ((.def_4 (or A21 .def_3))) (let ((.def_5 (not .def_4))) (let ((.def_6 (and .def_5 .def_2))) (let ((.def_7 (not .def_6))) (let ((.def_8 (not A2))) (let ((.def_9 (or A19 .def_8))) (let ((.def_10 (not .def_9))) (let ((.def_11 (not A1))) (let ((.def_12 (and .def_11 A9))) (let ((.def_13 (not .def_12))) (let ((.def_14 (and .def_13 .def_10))) (let ((.def_15 (or .def_14 .def_7))) (let ((.def_16 (not .def_15))) (let ((.def_17 (not A20))) (let ((.def_18 (not A7))) (let ((.def_19 (and .def_18 .def_17))) (let ((.def_20 (not .def_19))) (let ((.def_21 (not A0))) (let ((.def_22 (and A18 .def_21))) (let ((.def_23 (and .def_22 .def_20))) (let ((.def_24 (not .def_23))) (let ((.def_25 (not A16))) (let ((.def_26 (or .def_25 A22))) (let ((.def_27 (not A15))) (let ((.def_28 (not A4))) (let ((.def_29 (= .def_28 .def_27))) (let ((.def_30 (not .def_29))) (let ((.def_31 (or .def_30 .def_26))) (let ((.def_32 (not .def_31))) (let ((.def_33 (or .def_32 .def_24))) (let ((.def_34 (and .def_33 .def_16))) (let ((.def_35 (not .def_34))) (let ((.def_36 (not A14))) (let ((.def_37 (or A7 .def_36))) (let ((.def_38 (not A12))) (let ((.def_39 (not A8))) (let ((.def_40 (and .def_39 .def_38))) (let ((.def_41 (or .def_40 .def_37))) (let ((.def_42 (and A4 A11))) (let ((.def_43 (not .def_42))) (let ((.def_44 (not A3))) (let ((.def_45 (and A8 .def_44))) (let ((.def_46 (or .def_45 .def_43))) (let ((.def_47 (and .def_46 .def_41))) (let ((.def_48 (or .def_36 A4))) (let ((.def_49 (or .def_0 A3))) (let ((.def_50 (not .def_49))) (let ((.def_51 (= .def_50 .def_48))) (let ((.def_52 (and A18 .def_28))) (let ((.def_53 (not A9))) (let ((.def_54 (and .def_53 .def_18))) (let ((.def_55 (or .def_54 .def_52))) (let ((.def_56 (not .def_55))) (let ((.def_57 (or .def_56 .def_51))) (let ((.def_58 (and .def_57 .def_47))) (let ((.def_59 (not .def_58))) (let ((.def_60 (or .def_59 .def_35))) (let ((.def_61 (not .def_60))) (let ((.def_62 (or A24 .def_53))) (let ((.def_63 (not .def_62))) (let ((.def_64 (not A13))) (let ((.def_65 (or .def_64 A3))) (let ((.def_66 (not .def_65))) (let ((.def_67 (and .def_66 .def_63))) (let ((.def_68 (or A9 A6))) (let ((.def_69 (not .def_68))) (let ((.def_70 (and .def_11 A19))) (let ((.def_71 (not .def_70))) (let ((.def_72 (= .def_71 .def_69))) (let ((.def_73 (not .def_72))) (let ((.def_74 (and .def_73 .def_67))) (let ((.def_75 (and .def_0 A24))) (let ((.def_76 (= A20 A16))) (let ((.def_77 (and .def_76 .def_75))) (let ((.def_78 (and A5 A3))) (let ((.def_79 (not A22))) (let ((.def_80 (and .def_79 A20))) (let ((.def_81 (not .def_80))) (let ((.def_82 (or .def_81 .def_78))) (let ((.def_83 (or .def_82 .def_77))) (let ((.def_84 (or .def_83 .def_74))) (let ((.def_85 (and A1 A12))) (let ((.def_86 (or A23 A9))) (let ((.def_87 (not .def_86))) (let ((.def_88 (or .def_87 .def_85))) (let ((.def_89 (not .def_88))) (let ((.def_90 (and A13 A20))) (let ((.def_91 (not A10))) (let ((.def_92 (not A11))) (let ((.def_93 (or .def_92 .def_91))) (let ((.def_94 (or .def_93 .def_90))) (let ((.def_95 (and .def_94 .def_89))) (let ((.def_96 (not .def_95))) (let ((.def_97 (or .def_25 A0))) (let ((.def_98 (not .def_97))) (let ((.def_99 (and .def_28 .def_64))) (let ((.def_100 (and .def_99 .def_98))) (let ((.def_101 (not .def_100))) (let ((.def_102 (or .def_17 A1))) (let ((.def_103 (not .def_102))) (let ((.def_104 (and A16 A2))) (let ((.def_105 (not .def_104))) (let ((.def_106 (or .def_105 .def_103))) (let ((.def_107 (or .def_106 .def_101))) (let ((.def_108 (and .def_107 .def_96))) (let ((.def_109 (not .def_108))) (let ((.def_110 (or .def_109 .def_84))) (let ((.def_111 (or .def_110 .def_61))) (let ((.def_112 (not .def_111))) (let ((.def_113 (not A21))) (let ((.def_114 (and .def_113 .def_44))) (let ((.def_115 (not A23))) (let ((.def_116 (and A6 .def_115))) (let ((.def_117 (and .def_116 .def_114))) (let ((.def_118 (or A7 .def_21))) (let ((.def_119 (and A9 .def_25))) (let ((.def_120 (and .def_119 .def_118))) (let ((.def_121 (not .def_120))) (let ((.def_122 (and .def_121 .def_117))) (let ((.def_123 (not .def_122))) (let ((.def_124 (or A5 A19))) (let ((.def_125 (not .def_124))) (let ((.def_126 (and .def_113 A17))) (let ((.def_127 (not .def_126))) (let ((.def_128 (or .def_127 .def_125))) (let ((.def_129 (not .def_128))) (let ((.def_130 (or A16 .def_11))) (let ((.def_131 (or A19 .def_21))) (let ((.def_132 (and .def_131 .def_130))) (let ((.def_133 (and .def_132 .def_129))) (let ((.def_134 (not .def_133))) (let ((.def_135 (or .def_134 .def_123))) (let ((.def_136 (or A18 A17))) (let ((.def_137 (= .def_92 A18))) (let ((.def_138 (not .def_137))) (let ((.def_139 (or .def_138 .def_136))) (let ((.def_140 (not .def_139))) (let ((.def_141 (and .def_115 .def_53))) (let ((.def_142 (or A13 A24))) (let ((.def_143 (= .def_142 .def_141))) (let ((.def_144 (and .def_143 .def_140))) (let ((.def_145 (and A24 A3))) (let ((.def_146 (not .def_145))) (let ((.def_147 (or .def_28 .def_115))) (let ((.def_148 (= .def_147 .def_146))) (let ((.def_149 (or A20 A1))) (let ((.def_150 (or A23 A12))) (let ((.def_151 (not .def_150))) (let ((.def_152 (or .def_151 .def_149))) (let ((.def_153 (not .def_152))) (let ((.def_154 (and .def_153 .def_148))) (let ((.def_155 (or .def_154 .def_144))) (let ((.def_156 (not .def_155))) (let ((.def_157 (or .def_156 .def_135))) (let ((.def_158 (and .def_3 .def_113))) (let ((.def_159 (and A10 .def_0))) (let ((.def_160 (not .def_159))) (let ((.def_161 (and .def_160 .def_158))) (let ((.def_162 (and A23 .def_113))) (let ((.def_163 (or A19 A13))) (let ((.def_164 (not .def_163))) (let ((.def_165 (and .def_164 .def_162))) (let ((.def_166 (not .def_165))) (let ((.def_167 (or .def_166 .def_161))) (let ((.def_168 (and A6 A13))) (let ((.def_169 (not A19))) (let ((.def_170 (or A7 .def_169))) (let ((.def_171 (or .def_170 .def_168))) (let ((.def_172 (not .def_171))) (let ((.def_173 (or .def_27 .def_0))) (let ((.def_174 (or A15 .def_25))) (let ((.def_175 (not .def_174))) (let ((.def_176 (or .def_175 .def_173))) (let ((.def_177 (and .def_176 .def_172))) (let ((.def_178 (and .def_177 .def_167))) (let ((.def_179 (not .def_178))) (let ((.def_180 (and A12 .def_28))) (let ((.def_181 (and .def_38 A11))) (let ((.def_182 (not .def_181))) (let ((.def_183 (and .def_182 .def_180))) (let ((.def_184 (not A24))) (let ((.def_185 (or A1 .def_184))) (let ((.def_186 (and A13 .def_27))) (let ((.def_187 (or .def_186 .def_185))) (let ((.def_188 (not .def_187))) (let ((.def_189 (and .def_188 .def_183))) (let ((.def_190 (or A6 A4))) (let ((.def_191 (= A10 A5))) (let ((.def_192 (not .def_191))) (let ((.def_193 (or .def_192 .def_190))) (let ((.def_194 (not .def_193))) (let ((.def_195 (or .def_11 A19))) (let ((.def_196 (not .def_195))) (let ((.def_197 (and .def_17 .def_113))) (let ((.def_198 (and .def_197 .def_196))) (let ((.def_199 (and .def_198 .def_194))) (let ((.def_200 (not .def_199))) (let ((.def_201 (or .def_200 .def_189))) (let ((.def_202 (not .def_201))) (let ((.def_203 (or .def_202 .def_179))) (let ((.def_204 (or .def_203 .def_157))) (let ((.def_205 (not .def_204))) (let ((.def_206 (and .def_205 .def_112))) .def_206))))))))))))))))))))))))))))))))))))))))))))))))))))))))))))))))))))))))))))))))))))))))))))))))))))))))))))))))))))))))))))))))))))))))))))))))))))))))))))))))))))))))))))))))))))))))))))))))))))))))))))))))
(check-sat)
